Maximize
 0
Subject To
 epc_0!1: +11.970717251282707 y_1!1_2!1 +61.806877573751194 y_1!2_2!1 -20.791392472755874 y_1!3_2!1 -9.721468688220838 y_1!4_2!1 +17.4686749357609 y_1!5_2!1 -78.50210219704199 y_1!1_2!2 +54.591612415716355 y_1!2_2!2 +26.94676994002276 y_1!3_2!2 -95.6415722743522 y_1!4_2!2 +41.60733792547475 y_1!5_2!2 +86.70433591813074 y_1!1_2!3 -91.44675457573683 y_1!2_2!3 -11.431167509093768 y_1!3_2!3 -85.09999276711542 y_1!4_2!3 +11.6871314531855 y_1!5_2!3 +93.23417808271765 y_1!1_2!4 +54.3583298559557 y_1!2_2!4 +99.10678544370376 y_1!3_2!4 +81.82837992782822 y_1!4_2!4 +79.55047277601543 y_1!5_2!4 +97.56519691973486 y_1!1_2!5 -38.53685315960724 y_1!2_2!5 +37.91829523402038 y_1!3_2!5 -61.930294521202335 y_1!4_2!5 -12.639975364841334 y_1!5_2!5 + lambda_0!1 - mu_0 = 0
 epc_0!2: -75.88108305264083 y_1!1_2!1 +55.9824098309563 y_1!2_2!1 -80.06473786136348 y_1!3_2!1 -42.066196939407675 y_1!4_2!1 -79.41026287312975 y_1!5_2!1 -94.60600760956322 y_1!1_2!2 +84.41724766311728 y_1!2_2!2 +98.57352978565297 y_1!3_2!2 -44.81847154711753 y_1!4_2!2 -34.29039433214673 y_1!5_2!2 -13.913568811370538 y_1!1_2!3 +27.487799252330205 y_1!2_2!3 +47.3090050392328 y_1!3_2!3 +81.08505448640847 y_1!4_2!3 +22.507617835366787 y_1!5_2!3 -31.50531760094279 y_1!1_2!4 -53.789984269803966 y_1!2_2!4 -72.40690806710803 y_1!3_2!4 -92.67030171285636 y_1!4_2!4 -42.146909653543304 y_1!5_2!4 +42.146470669488906 y_1!1_2!5 -25.51154673369834 y_1!2_2!5 +45.144462465549054 y_1!3_2!5 -6.706231263229597 y_1!4_2!5 +54.730232691728105 y_1!5_2!5 + lambda_0!2 - mu_0 = 0
 epc_0!3: -56.498341083665025 y_1!1_2!1 +20.25643276658144 y_1!2_2!1 -88.33533190733058 y_1!3_2!1 +2.206259873934499 y_1!4_2!1 +15.525539941803615 y_1!5_2!1 -82.68906895896704 y_1!1_2!2 +66.37380885917938 y_1!2_2!2 -60.09321517430659 y_1!3_2!2 -99.30432032985472 y_1!4_2!2 +87.94740192089526 y_1!5_2!2 +24.628308348355432 y_1!1_2!3 -36.518364897081 y_1!2_2!3 +60.437437724323416 y_1!3_2!3 -95.67570409904818 y_1!4_2!3 +49.716730447031836 y_1!5_2!3 -90.17857703528938 y_1!1_2!4 +81.9086170810231 y_1!2_2!4 +43.581556050911104 y_1!3_2!4 -82.59661776326128 y_1!4_2!4 +33.49215286720025 y_1!5_2!4 -23.075411733605918 y_1!1_2!5 +22.742525773744674 y_1!2_2!5 +97.56869424036157 y_1!3_2!5 -52.21689699604217 y_1!4_2!5 -5.47588011350777 y_1!5_2!5 + lambda_0!3 - mu_0 = 0
 epc_0!4: +92.69375820360361 y_1!1_2!1 -80.25352316720966 y_1!2_2!1 +67.35865938192839 y_1!3_2!1 +86.76799780510339 y_1!4_2!1 +42.82185919487185 y_1!5_2!1 -93.07938369161992 y_1!1_2!2 +1.163931450531038 y_1!2_2!2 +63.68490575390237 y_1!3_2!2 -40.228661005344165 y_1!4_2!2 +24.026200656900045 y_1!5_2!2 +74.76786508301643 y_1!1_2!3 -76.36955698260788 y_1!2_2!3 +86.05034912794918 y_1!3_2!3 +96.50211872026401 y_1!4_2!3 -29.057136185091608 y_1!5_2!3 -0.07978944905224239 y_1!1_2!4 -97.26474625186417 y_1!2_2!4 -29.977159081211695 y_1!3_2!4 -92.66380078905603 y_1!4_2!4 -39.779571252717446 y_1!5_2!4 -29.325724575830094 y_1!1_2!5 -5.116292365033971 y_1!2_2!5 +0.4241938730703083 y_1!3_2!5 +4.356795644336017 y_1!4_2!5 -98.40379133597853 y_1!5_2!5 + lambda_0!4 - mu_0 = 0
 epc_0!5: +69.82207135599506 y_1!1_2!1 -51.88111444875545 y_1!2_2!1 +91.08469650680286 y_1!3_2!1 -9.489943310789158 y_1!4_2!1 +32.65931094939228 y_1!5_2!1 -37.61574711705229 y_1!1_2!2 +96.17031723369803 y_1!2_2!2 +54.739776451755574 y_1!3_2!2 -64.1827804056255 y_1!4_2!2 +80.52080953215736 y_1!5_2!2 +15.66847540260332 y_1!1_2!3 -62.261973522622505 y_1!2_2!3 -52.14985731466213 y_1!3_2!3 +65.57584036594591 y_1!4_2!3 -6.785532268903154 y_1!5_2!3 -2.644298117503439 y_1!1_2!4 +15.372931417214048 y_1!2_2!4 +75.86192786384169 y_1!3_2!4 -10.709066575391716 y_1!4_2!4 -95.40295157477978 y_1!5_2!4 -86.11875232948778 y_1!1_2!5 -51.631039643045476 y_1!2_2!5 +60.489503275509804 y_1!3_2!5 +37.94905239139587 y_1!4_2!5 -88.49838665756751 y_1!5_2!5 + lambda_0!5 - mu_0 = 0
 dc_0: x_0!1 + x_0!2 + x_0!3 + x_0!4 + x_0!5 = 1
 bc_0!1: lambda_0!1 +298.41110577355846 x_0!1 <= 298.41110577355846
 bc_0!2: lambda_0!2 +298.41110577355846 x_0!2 <= 298.41110577355846
 bc_0!3: lambda_0!3 +298.41110577355846 x_0!3 <= 298.41110577355846
 bc_0!4: lambda_0!4 +298.41110577355846 x_0!4 <= 298.41110577355846
 bc_0!5: lambda_0!5 +298.41110577355846 x_0!5 <= 298.41110577355846
 sum_0!1: y_1!1_2!1 - x_1!1 - x_2!1 >= -1
 idk_0!1!1: y_1!1_2!1 - x_1!1 <= 0
 idk_0!1!2: y_1!1_2!1 - x_2!1 <= 0
 sum_0!2: y_1!2_2!1 - x_1!2 - x_2!1 >= -1
 idk_0!2!1: y_1!2_2!1 - x_1!2 <= 0
 idk_0!2!2: y_1!2_2!1 - x_2!1 <= 0
 sum_0!3: y_1!3_2!1 - x_1!3 - x_2!1 >= -1
 idk_0!3!1: y_1!3_2!1 - x_1!3 <= 0
 idk_0!3!2: y_1!3_2!1 - x_2!1 <= 0
 sum_0!4: y_1!4_2!1 - x_1!4 - x_2!1 >= -1
 idk_0!4!1: y_1!4_2!1 - x_1!4 <= 0
 idk_0!4!2: y_1!4_2!1 - x_2!1 <= 0
 sum_0!5: y_1!5_2!1 - x_1!5 - x_2!1 >= -1
 idk_0!5!1: y_1!5_2!1 - x_1!5 <= 0
 idk_0!5!2: y_1!5_2!1 - x_2!1 <= 0
 sum_0!6: y_1!1_2!2 - x_1!1 - x_2!2 >= -1
 idk_0!6!1: y_1!1_2!2 - x_1!1 <= 0
 idk_0!6!2: y_1!1_2!2 - x_2!2 <= 0
 sum_0!7: y_1!2_2!2 - x_1!2 - x_2!2 >= -1
 idk_0!7!1: y_1!2_2!2 - x_1!2 <= 0
 idk_0!7!2: y_1!2_2!2 - x_2!2 <= 0
 sum_0!8: y_1!3_2!2 - x_1!3 - x_2!2 >= -1
 idk_0!8!1: y_1!3_2!2 - x_1!3 <= 0
 idk_0!8!2: y_1!3_2!2 - x_2!2 <= 0
 sum_0!9: y_1!4_2!2 - x_1!4 - x_2!2 >= -1
 idk_0!9!1: y_1!4_2!2 - x_1!4 <= 0
 idk_0!9!2: y_1!4_2!2 - x_2!2 <= 0
 sum_0!10: y_1!5_2!2 - x_1!5 - x_2!2 >= -1
 idk_0!10!1: y_1!5_2!2 - x_1!5 <= 0
 idk_0!10!2: y_1!5_2!2 - x_2!2 <= 0
 sum_0!11: y_1!1_2!3 - x_1!1 - x_2!3 >= -1
 idk_0!11!1: y_1!1_2!3 - x_1!1 <= 0
 idk_0!11!2: y_1!1_2!3 - x_2!3 <= 0
 sum_0!12: y_1!2_2!3 - x_1!2 - x_2!3 >= -1
 idk_0!12!1: y_1!2_2!3 - x_1!2 <= 0
 idk_0!12!2: y_1!2_2!3 - x_2!3 <= 0
 sum_0!13: y_1!3_2!3 - x_1!3 - x_2!3 >= -1
 idk_0!13!1: y_1!3_2!3 - x_1!3 <= 0
 idk_0!13!2: y_1!3_2!3 - x_2!3 <= 0
 sum_0!14: y_1!4_2!3 - x_1!4 - x_2!3 >= -1
 idk_0!14!1: y_1!4_2!3 - x_1!4 <= 0
 idk_0!14!2: y_1!4_2!3 - x_2!3 <= 0
 sum_0!15: y_1!5_2!3 - x_1!5 - x_2!3 >= -1
 idk_0!15!1: y_1!5_2!3 - x_1!5 <= 0
 idk_0!15!2: y_1!5_2!3 - x_2!3 <= 0
 sum_0!16: y_1!1_2!4 - x_1!1 - x_2!4 >= -1
 idk_0!16!1: y_1!1_2!4 - x_1!1 <= 0
 idk_0!16!2: y_1!1_2!4 - x_2!4 <= 0
 sum_0!17: y_1!2_2!4 - x_1!2 - x_2!4 >= -1
 idk_0!17!1: y_1!2_2!4 - x_1!2 <= 0
 idk_0!17!2: y_1!2_2!4 - x_2!4 <= 0
 sum_0!18: y_1!3_2!4 - x_1!3 - x_2!4 >= -1
 idk_0!18!1: y_1!3_2!4 - x_1!3 <= 0
 idk_0!18!2: y_1!3_2!4 - x_2!4 <= 0
 sum_0!19: y_1!4_2!4 - x_1!4 - x_2!4 >= -1
 idk_0!19!1: y_1!4_2!4 - x_1!4 <= 0
 idk_0!19!2: y_1!4_2!4 - x_2!4 <= 0
 sum_0!20: y_1!5_2!4 - x_1!5 - x_2!4 >= -1
 idk_0!20!1: y_1!5_2!4 - x_1!5 <= 0
 idk_0!20!2: y_1!5_2!4 - x_2!4 <= 0
 sum_0!21: y_1!1_2!5 - x_1!1 - x_2!5 >= -1
 idk_0!21!1: y_1!1_2!5 - x_1!1 <= 0
 idk_0!21!2: y_1!1_2!5 - x_2!5 <= 0
 sum_0!22: y_1!2_2!5 - x_1!2 - x_2!5 >= -1
 idk_0!22!1: y_1!2_2!5 - x_1!2 <= 0
 idk_0!22!2: y_1!2_2!5 - x_2!5 <= 0
 sum_0!23: y_1!3_2!5 - x_1!3 - x_2!5 >= -1
 idk_0!23!1: y_1!3_2!5 - x_1!3 <= 0
 idk_0!23!2: y_1!3_2!5 - x_2!5 <= 0
 sum_0!24: y_1!4_2!5 - x_1!4 - x_2!5 >= -1
 idk_0!24!1: y_1!4_2!5 - x_1!4 <= 0
 idk_0!24!2: y_1!4_2!5 - x_2!5 <= 0
 sum_0!25: y_1!5_2!5 - x_1!5 - x_2!5 >= -1
 idk_0!25!1: y_1!5_2!5 - x_1!5 <= 0
 idk_0!25!2: y_1!5_2!5 - x_2!5 <= 0
 epc_1!1: -90.6202735788346 y_0!1_2!1 -38.16640866544818 y_0!2_2!1 +35.99213062040366 y_0!3_2!1 +79.48349843620286 y_0!4_2!1 +48.95303253066473 y_0!5_2!1 -30.22028662472107 y_0!1_2!2 +26.522998151947093 y_0!2_2!2 +64.65329592037122 y_0!3_2!2 +65.20884821642667 y_0!4_2!2 -76.97305470301667 y_0!5_2!2 -17.3380226124862 y_0!1_2!3 -25.140940767884288 y_0!2_2!3 +87.5901523817831 y_0!3_2!3 -65.29966121765756 y_0!4_2!3 +61.43640573449369 y_0!5_2!3 -59.91510346692157 y_0!1_2!4 -43.69711803796792 y_0!2_2!4 -62.88301351634471 y_0!3_2!4 +30.519728901239063 y_0!4_2!4 -20.755248059348716 y_0!5_2!4 +21.911500380701483 y_0!1_2!5 -17.641715293770716 y_0!2_2!5 -80.36922382704901 y_0!3_2!5 +8.471738815039046 y_0!4_2!5 -1.144921717712478 y_0!5_2!5 + lambda_1!1 - mu_1 = 0
 epc_1!2: -94.90036884392228 y_0!1_2!1 +59.14270769920634 y_0!2_2!1 -21.14383659666821 y_0!3_2!1 +83.73072842510376 y_0!4_2!1 +71.40675616387259 y_0!5_2!1 +60.39012376019872 y_0!1_2!2 -22.36357371471331 y_0!2_2!2 -75.3404013074109 y_0!3_2!2 -70.93996658441613 y_0!4_2!2 -14.881495061532519 y_0!5_2!2 +5.1724999632187405 y_0!1_2!3 +92.62913934076656 y_0!2_2!3 +66.99553617874088 y_0!3_2!3 +48.26907178512067 y_0!4_2!3 +83.0204204187774 y_0!5_2!3 +13.207380819075524 y_0!1_2!4 -71.1257390235146 y_0!2_2!4 +69.47254442544175 y_0!3_2!4 -83.85259077977194 y_0!4_2!4 -90.88112714904034 y_0!5_2!4 +53.28815364903477 y_0!1_2!5 -49.5959769567482 y_0!2_2!5 -10.256267290893192 y_0!3_2!5 +18.582811445683063 y_0!4_2!5 -16.56987315019194 y_0!5_2!5 + lambda_1!2 - mu_1 = 0
 epc_1!3: -45.930268840981036 y_0!1_2!1 +17.841556923803466 y_0!2_2!1 -91.02705791011812 y_0!3_2!1 +59.62783990672824 y_0!4_2!1 -45.085040881275894 y_0!5_2!1 -27.407624315212487 y_0!1_2!2 +77.09120896235319 y_0!2_2!2 +31.143475587974592 y_0!3_2!2 +59.486744790463376 y_0!4_2!2 -47.661088563524466 y_0!5_2!2 +76.47121679490533 y_0!1_2!3 -43.05685886399595 y_0!2_2!3 -12.420313060865269 y_0!3_2!3 +93.52840359805131 y_0!4_2!3 -88.02096410135611 y_0!5_2!3 +41.48154813013875 y_0!1_2!4 +62.327585510513586 y_0!2_2!4 +15.816682868594228 y_0!3_2!4 -61.68471056820049 y_0!4_2!4 +54.01282135266649 y_0!5_2!4 +14.736110735120064 y_0!1_2!5 -73.79946837208742 y_0!2_2!5 +63.09190131391475 y_0!3_2!5 -15.622967462402457 y_0!4_2!5 -77.5214446968238 y_0!5_2!5 + lambda_1!3 - mu_1 = 0
 epc_1!4: -79.07415491529139 y_0!1_2!1 +28.239204740547365 y_0!2_2!1 +34.926945199902946 y_0!3_2!1 +21.229113238621437 y_0!4_2!1 +87.50676690689792 y_0!5_2!1 +33.15205864647686 y_0!1_2!2 -19.61318512892221 y_0!2_2!2 -71.60754740070192 y_0!3_2!2 -41.47313197918536 y_0!4_2!2 +37.65291493814027 y_0!5_2!2 +75.00746043567273 y_0!1_2!3 +40.73797438807071 y_0!2_2!3 +47.79210471095726 y_0!3_2!3 +25.5399447405739 y_0!4_2!3 +36.178876860946104 y_0!5_2!3 +36.50742049299916 y_0!1_2!4 -8.828776254654016 y_0!2_2!4 +26.009834524965598 y_0!3_2!4 +82.00766529261614 y_0!4_2!4 -21.755549099998746 y_0!5_2!4 +31.769499905125002 y_0!1_2!5 -34.60720447049603 y_0!2_2!5 +86.5175911437226 y_0!3_2!5 -44.15114088713277 y_0!4_2!5 -59.83771446566604 y_0!5_2!5 + lambda_1!4 - mu_1 = 0
 epc_1!5: +98.94321205277342 y_0!1_2!1 -95.75151081742459 y_0!2_2!1 +23.940054188101684 y_0!3_2!1 -35.62806413634459 y_0!4_2!1 -19.782774982512137 y_0!5_2!1 +63.21093207991004 y_0!1_2!2 +53.574034449098406 y_0!2_2!2 -29.313294592119647 y_0!3_2!2 -47.45248920256599 y_0!4_2!2 -38.6590723065501 y_0!5_2!2 -41.80562935086976 y_0!1_2!3 +81.90509062703597 y_0!2_2!3 +51.27116464142068 y_0!3_2!3 +63.73833394763005 y_0!4_2!3 -94.27602292256643 y_0!5_2!3 -51.115780837639505 y_0!1_2!4 +75.82664210686076 y_0!2_2!4 -59.31397343812124 y_0!3_2!4 +96.26646150517774 y_0!4_2!4 +75.26178127013708 y_0!5_2!4 +58.238703056917984 y_0!1_2!5 +95.81767901221917 y_0!2_2!5 +61.74423058870971 y_0!3_2!5 -94.80016047723203 y_0!4_2!5 -78.79639197281907 y_0!5_2!5 + lambda_1!5 - mu_1 = 0
 dc_1: x_1!1 + x_1!2 + x_1!3 + x_1!4 + x_1!5 = 1
 bc_1!1: lambda_1!1 +298.41110577355846 x_1!1 <= 298.41110577355846
 bc_1!2: lambda_1!2 +298.41110577355846 x_1!2 <= 298.41110577355846
 bc_1!3: lambda_1!3 +298.41110577355846 x_1!3 <= 298.41110577355846
 bc_1!4: lambda_1!4 +298.41110577355846 x_1!4 <= 298.41110577355846
 bc_1!5: lambda_1!5 +298.41110577355846 x_1!5 <= 298.41110577355846
 sum_1!1: y_0!1_2!1 - x_0!1 - x_2!1 >= -1
 idk_1!1!0: y_0!1_2!1 - x_0!1 <= 0
 idk_1!1!2: y_0!1_2!1 - x_2!1 <= 0
 sum_1!2: y_0!2_2!1 - x_0!2 - x_2!1 >= -1
 idk_1!2!0: y_0!2_2!1 - x_0!2 <= 0
 idk_1!2!2: y_0!2_2!1 - x_2!1 <= 0
 sum_1!3: y_0!3_2!1 - x_0!3 - x_2!1 >= -1
 idk_1!3!0: y_0!3_2!1 - x_0!3 <= 0
 idk_1!3!2: y_0!3_2!1 - x_2!1 <= 0
 sum_1!4: y_0!4_2!1 - x_0!4 - x_2!1 >= -1
 idk_1!4!0: y_0!4_2!1 - x_0!4 <= 0
 idk_1!4!2: y_0!4_2!1 - x_2!1 <= 0
 sum_1!5: y_0!5_2!1 - x_0!5 - x_2!1 >= -1
 idk_1!5!0: y_0!5_2!1 - x_0!5 <= 0
 idk_1!5!2: y_0!5_2!1 - x_2!1 <= 0
 sum_1!6: y_0!1_2!2 - x_0!1 - x_2!2 >= -1
 idk_1!6!0: y_0!1_2!2 - x_0!1 <= 0
 idk_1!6!2: y_0!1_2!2 - x_2!2 <= 0
 sum_1!7: y_0!2_2!2 - x_0!2 - x_2!2 >= -1
 idk_1!7!0: y_0!2_2!2 - x_0!2 <= 0
 idk_1!7!2: y_0!2_2!2 - x_2!2 <= 0
 sum_1!8: y_0!3_2!2 - x_0!3 - x_2!2 >= -1
 idk_1!8!0: y_0!3_2!2 - x_0!3 <= 0
 idk_1!8!2: y_0!3_2!2 - x_2!2 <= 0
 sum_1!9: y_0!4_2!2 - x_0!4 - x_2!2 >= -1
 idk_1!9!0: y_0!4_2!2 - x_0!4 <= 0
 idk_1!9!2: y_0!4_2!2 - x_2!2 <= 0
 sum_1!10: y_0!5_2!2 - x_0!5 - x_2!2 >= -1
 idk_1!10!0: y_0!5_2!2 - x_0!5 <= 0
 idk_1!10!2: y_0!5_2!2 - x_2!2 <= 0
 sum_1!11: y_0!1_2!3 - x_0!1 - x_2!3 >= -1
 idk_1!11!0: y_0!1_2!3 - x_0!1 <= 0
 idk_1!11!2: y_0!1_2!3 - x_2!3 <= 0
 sum_1!12: y_0!2_2!3 - x_0!2 - x_2!3 >= -1
 idk_1!12!0: y_0!2_2!3 - x_0!2 <= 0
 idk_1!12!2: y_0!2_2!3 - x_2!3 <= 0
 sum_1!13: y_0!3_2!3 - x_0!3 - x_2!3 >= -1
 idk_1!13!0: y_0!3_2!3 - x_0!3 <= 0
 idk_1!13!2: y_0!3_2!3 - x_2!3 <= 0
 sum_1!14: y_0!4_2!3 - x_0!4 - x_2!3 >= -1
 idk_1!14!0: y_0!4_2!3 - x_0!4 <= 0
 idk_1!14!2: y_0!4_2!3 - x_2!3 <= 0
 sum_1!15: y_0!5_2!3 - x_0!5 - x_2!3 >= -1
 idk_1!15!0: y_0!5_2!3 - x_0!5 <= 0
 idk_1!15!2: y_0!5_2!3 - x_2!3 <= 0
 sum_1!16: y_0!1_2!4 - x_0!1 - x_2!4 >= -1
 idk_1!16!0: y_0!1_2!4 - x_0!1 <= 0
 idk_1!16!2: y_0!1_2!4 - x_2!4 <= 0
 sum_1!17: y_0!2_2!4 - x_0!2 - x_2!4 >= -1
 idk_1!17!0: y_0!2_2!4 - x_0!2 <= 0
 idk_1!17!2: y_0!2_2!4 - x_2!4 <= 0
 sum_1!18: y_0!3_2!4 - x_0!3 - x_2!4 >= -1
 idk_1!18!0: y_0!3_2!4 - x_0!3 <= 0
 idk_1!18!2: y_0!3_2!4 - x_2!4 <= 0
 sum_1!19: y_0!4_2!4 - x_0!4 - x_2!4 >= -1
 idk_1!19!0: y_0!4_2!4 - x_0!4 <= 0
 idk_1!19!2: y_0!4_2!4 - x_2!4 <= 0
 sum_1!20: y_0!5_2!4 - x_0!5 - x_2!4 >= -1
 idk_1!20!0: y_0!5_2!4 - x_0!5 <= 0
 idk_1!20!2: y_0!5_2!4 - x_2!4 <= 0
 sum_1!21: y_0!1_2!5 - x_0!1 - x_2!5 >= -1
 idk_1!21!0: y_0!1_2!5 - x_0!1 <= 0
 idk_1!21!2: y_0!1_2!5 - x_2!5 <= 0
 sum_1!22: y_0!2_2!5 - x_0!2 - x_2!5 >= -1
 idk_1!22!0: y_0!2_2!5 - x_0!2 <= 0
 idk_1!22!2: y_0!2_2!5 - x_2!5 <= 0
 sum_1!23: y_0!3_2!5 - x_0!3 - x_2!5 >= -1
 idk_1!23!0: y_0!3_2!5 - x_0!3 <= 0
 idk_1!23!2: y_0!3_2!5 - x_2!5 <= 0
 sum_1!24: y_0!4_2!5 - x_0!4 - x_2!5 >= -1
 idk_1!24!0: y_0!4_2!5 - x_0!4 <= 0
 idk_1!24!2: y_0!4_2!5 - x_2!5 <= 0
 sum_1!25: y_0!5_2!5 - x_0!5 - x_2!5 >= -1
 idk_1!25!0: y_0!5_2!5 - x_0!5 <= 0
 idk_1!25!2: y_0!5_2!5 - x_2!5 <= 0
 epc_2!1: +96.34125880309315 y_0!1_1!1 -88.8273168791876 y_0!2_1!1 -1.622409082637958 y_0!3_1!1 +10.77030996270561 y_0!4_1!1 +68.72322344212233 y_0!5_1!1 +22.202404773190665 y_0!1_1!2 -20.16612464248324 y_0!2_1!2 +51.951130010816485 y_0!3_1!2 +45.63134121289988 y_0!4_1!2 -78.77737529621449 y_0!5_1!2 -80.34875216917159 y_0!1_1!3 -67.96102948338293 y_0!2_1!3 -15.26485230429806 y_0!3_1!3 +3.5120602964469327 y_0!4_1!3 +37.00207806662604 y_0!5_1!3 +11.790494328391205 y_0!1_1!4 +61.20489384925892 y_0!2_1!4 -66.85877617762776 y_0!3_1!4 +46.8450256797953 y_0!4_1!4 -74.68747133717741 y_0!5_1!4 +33.686910742729054 y_0!1_1!5 +84.01347127821865 y_0!2_1!5 +27.55722938811344 y_0!3_1!5 -2.7993142760761174 y_0!4_1!5 +65.38553412979934 y_0!5_1!5 + lambda_2!1 - mu_2 = 0
 epc_2!2: -20.074166086856664 y_0!1_1!1 +2.068413284278577 y_0!2_1!1 -81.31990593355836 y_0!3_1!1 -42.47915147398833 y_0!4_1!1 +70.26467306979029 y_0!5_1!1 +13.692030912813209 y_0!1_1!2 +51.88277524581795 y_0!2_1!2 -51.279369001998056 y_0!3_1!2 +3.927694877590767 y_0!4_1!2 +96.01249450168706 y_0!5_1!2 +4.247709760880099 y_0!1_1!3 -76.05614437058924 y_0!2_1!3 -66.20957019988211 y_0!3_1!3 -51.898230948632104 y_0!4_1!3 +31.631303246166908 y_0!5_1!3 +60.32230629971764 y_0!1_1!4 +97.51185152606635 y_0!2_1!4 -67.99749762031962 y_0!3_1!4 -10.932590181310516 y_0!4_1!4 +14.84576116200607 y_0!5_1!4 -22.299592972197104 y_0!1_1!5 +8.829095132510844 y_0!2_1!5 -47.78230920014379 y_0!3_1!5 -69.89460056404728 y_0!4_1!5 -54.561770377402 y_0!5_1!5 + lambda_2!2 - mu_2 = 0
 epc_2!3: +23.002012685324246 y_0!1_1!1 +80.40468106147108 y_0!2_1!1 -0.6509280533102668 y_0!3_1!1 +35.88789433400589 y_0!4_1!1 -68.95515845164212 y_0!5_1!1 -16.278596362521824 y_0!1_1!2 +90.89115734090774 y_0!2_1!2 -6.817309840240711 y_0!3_1!2 -47.962434132117316 y_0!4_1!2 -7.936962134443888 y_0!5_1!2 -15.541193308316423 y_0!1_1!3 -45.972163726872225 y_0!2_1!3 -8.76636940597713 y_0!3_1!3 -96.97236833449811 y_0!4_1!3 -81.6545993416158 y_0!5_1!3 -84.58325087262426 y_0!1_1!4 +56.51244467276956 y_0!2_1!4 +8.484467548966876 y_0!3_1!4 -13.718833569840669 y_0!4_1!4 +51.5929427640734 y_0!5_1!4 -50.747005349088845 y_0!1_1!5 +66.21020616894404 y_0!2_1!5 +56.7199028335711 y_0!3_1!5 +8.864749131572253 y_0!4_1!5 +66.87834430993524 y_0!5_1!5 + lambda_2!3 - mu_2 = 0
 epc_2!4: -6.65547456815186 y_0!1_1!1 -85.22015909762027 y_0!2_1!1 -85.89338501281634 y_0!3_1!1 -96.26519242562684 y_0!4_1!1 +12.518540121724314 y_0!5_1!1 +48.36577024622943 y_0!1_1!2 -16.242771757526114 y_0!2_1!2 -19.866273530796974 y_0!3_1!2 -20.63919423656455 y_0!4_1!2 -84.96140665247212 y_0!5_1!2 -85.14857342278812 y_0!1_1!3 +66.29773550425915 y_0!2_1!3 +61.68731817030019 y_0!3_1!3 +34.98749304706047 y_0!4_1!3 +78.09920835207168 y_0!5_1!3 +98.61757471432239 y_0!1_1!4 +26.033509493220294 y_0!2_1!4 +57.99902917788674 y_0!3_1!4 -84.74806954989809 y_0!4_1!4 -89.96051837291665 y_0!5_1!4 -83.71233639876445 y_0!1_1!5 +48.606524858734105 y_0!2_1!5 +68.97219461416489 y_0!3_1!5 +14.567311255814872 y_0!4_1!5 +82.03694683808814 y_0!5_1!5 + lambda_2!4 - mu_2 = 0
 epc_2!5: +23.642132888007723 y_0!1_1!1 +43.150538504524235 y_0!2_1!1 -2.222438579455016 y_0!3_1!1 -69.1613913039218 y_0!4_1!1 +60.2030505725501 y_0!5_1!1 +5.088630599633433 y_0!1_1!2 -29.090393954575305 y_0!2_1!2 +38.98061962716736 y_0!3_1!2 +69.5824563197888 y_0!4_1!2 +98.19519536209512 y_0!5_1!2 +45.50736055737241 y_0!1_1!3 -40.60249213265021 y_0!2_1!3 +4.004727386518454 y_0!3_1!3 -65.18250803952488 y_0!4_1!3 +78.75287842538518 y_0!5_1!3 +13.258696044190543 y_0!1_1!4 +28.043633533183936 y_0!2_1!4 -16.442351478467927 y_0!3_1!4 +26.546228390515083 y_0!4_1!4 -56.65172488668044 y_0!5_1!4 +45.39117901523767 y_0!1_1!5 -46.100119044965005 y_0!2_1!5 -77.94980603689316 y_0!3_1!5 -57.293356551487726 y_0!4_1!5 -75.81601231570924 y_0!5_1!5 + lambda_2!5 - mu_2 = 0
 dc_2: x_2!1 + x_2!2 + x_2!3 + x_2!4 + x_2!5 = 1
 bc_2!1: lambda_2!1 +298.41110577355846 x_2!1 <= 298.41110577355846
 bc_2!2: lambda_2!2 +298.41110577355846 x_2!2 <= 298.41110577355846
 bc_2!3: lambda_2!3 +298.41110577355846 x_2!3 <= 298.41110577355846
 bc_2!4: lambda_2!4 +298.41110577355846 x_2!4 <= 298.41110577355846
 bc_2!5: lambda_2!5 +298.41110577355846 x_2!5 <= 298.41110577355846
 sum_2!1: y_0!1_1!1 - x_0!1 - x_1!1 >= -1
 idk_2!1!0: y_0!1_1!1 - x_0!1 <= 0
 idk_2!1!1: y_0!1_1!1 - x_1!1 <= 0
 sum_2!2: y_0!2_1!1 - x_0!2 - x_1!1 >= -1
 idk_2!2!0: y_0!2_1!1 - x_0!2 <= 0
 idk_2!2!1: y_0!2_1!1 - x_1!1 <= 0
 sum_2!3: y_0!3_1!1 - x_0!3 - x_1!1 >= -1
 idk_2!3!0: y_0!3_1!1 - x_0!3 <= 0
 idk_2!3!1: y_0!3_1!1 - x_1!1 <= 0
 sum_2!4: y_0!4_1!1 - x_0!4 - x_1!1 >= -1
 idk_2!4!0: y_0!4_1!1 - x_0!4 <= 0
 idk_2!4!1: y_0!4_1!1 - x_1!1 <= 0
 sum_2!5: y_0!5_1!1 - x_0!5 - x_1!1 >= -1
 idk_2!5!0: y_0!5_1!1 - x_0!5 <= 0
 idk_2!5!1: y_0!5_1!1 - x_1!1 <= 0
 sum_2!6: y_0!1_1!2 - x_0!1 - x_1!2 >= -1
 idk_2!6!0: y_0!1_1!2 - x_0!1 <= 0
 idk_2!6!1: y_0!1_1!2 - x_1!2 <= 0
 sum_2!7: y_0!2_1!2 - x_0!2 - x_1!2 >= -1
 idk_2!7!0: y_0!2_1!2 - x_0!2 <= 0
 idk_2!7!1: y_0!2_1!2 - x_1!2 <= 0
 sum_2!8: y_0!3_1!2 - x_0!3 - x_1!2 >= -1
 idk_2!8!0: y_0!3_1!2 - x_0!3 <= 0
 idk_2!8!1: y_0!3_1!2 - x_1!2 <= 0
 sum_2!9: y_0!4_1!2 - x_0!4 - x_1!2 >= -1
 idk_2!9!0: y_0!4_1!2 - x_0!4 <= 0
 idk_2!9!1: y_0!4_1!2 - x_1!2 <= 0
 sum_2!10: y_0!5_1!2 - x_0!5 - x_1!2 >= -1
 idk_2!10!0: y_0!5_1!2 - x_0!5 <= 0
 idk_2!10!1: y_0!5_1!2 - x_1!2 <= 0
 sum_2!11: y_0!1_1!3 - x_0!1 - x_1!3 >= -1
 idk_2!11!0: y_0!1_1!3 - x_0!1 <= 0
 idk_2!11!1: y_0!1_1!3 - x_1!3 <= 0
 sum_2!12: y_0!2_1!3 - x_0!2 - x_1!3 >= -1
 idk_2!12!0: y_0!2_1!3 - x_0!2 <= 0
 idk_2!12!1: y_0!2_1!3 - x_1!3 <= 0
 sum_2!13: y_0!3_1!3 - x_0!3 - x_1!3 >= -1
 idk_2!13!0: y_0!3_1!3 - x_0!3 <= 0
 idk_2!13!1: y_0!3_1!3 - x_1!3 <= 0
 sum_2!14: y_0!4_1!3 - x_0!4 - x_1!3 >= -1
 idk_2!14!0: y_0!4_1!3 - x_0!4 <= 0
 idk_2!14!1: y_0!4_1!3 - x_1!3 <= 0
 sum_2!15: y_0!5_1!3 - x_0!5 - x_1!3 >= -1
 idk_2!15!0: y_0!5_1!3 - x_0!5 <= 0
 idk_2!15!1: y_0!5_1!3 - x_1!3 <= 0
 sum_2!16: y_0!1_1!4 - x_0!1 - x_1!4 >= -1
 idk_2!16!0: y_0!1_1!4 - x_0!1 <= 0
 idk_2!16!1: y_0!1_1!4 - x_1!4 <= 0
 sum_2!17: y_0!2_1!4 - x_0!2 - x_1!4 >= -1
 idk_2!17!0: y_0!2_1!4 - x_0!2 <= 0
 idk_2!17!1: y_0!2_1!4 - x_1!4 <= 0
 sum_2!18: y_0!3_1!4 - x_0!3 - x_1!4 >= -1
 idk_2!18!0: y_0!3_1!4 - x_0!3 <= 0
 idk_2!18!1: y_0!3_1!4 - x_1!4 <= 0
 sum_2!19: y_0!4_1!4 - x_0!4 - x_1!4 >= -1
 idk_2!19!0: y_0!4_1!4 - x_0!4 <= 0
 idk_2!19!1: y_0!4_1!4 - x_1!4 <= 0
 sum_2!20: y_0!5_1!4 - x_0!5 - x_1!4 >= -1
 idk_2!20!0: y_0!5_1!4 - x_0!5 <= 0
 idk_2!20!1: y_0!5_1!4 - x_1!4 <= 0
 sum_2!21: y_0!1_1!5 - x_0!1 - x_1!5 >= -1
 idk_2!21!0: y_0!1_1!5 - x_0!1 <= 0
 idk_2!21!1: y_0!1_1!5 - x_1!5 <= 0
 sum_2!22: y_0!2_1!5 - x_0!2 - x_1!5 >= -1
 idk_2!22!0: y_0!2_1!5 - x_0!2 <= 0
 idk_2!22!1: y_0!2_1!5 - x_1!5 <= 0
 sum_2!23: y_0!3_1!5 - x_0!3 - x_1!5 >= -1
 idk_2!23!0: y_0!3_1!5 - x_0!3 <= 0
 idk_2!23!1: y_0!3_1!5 - x_1!5 <= 0
 sum_2!24: y_0!4_1!5 - x_0!4 - x_1!5 >= -1
 idk_2!24!0: y_0!4_1!5 - x_0!4 <= 0
 idk_2!24!1: y_0!4_1!5 - x_1!5 <= 0
 sum_2!25: y_0!5_1!5 - x_0!5 - x_1!5 >= -1
 idk_2!25!0: y_0!5_1!5 - x_0!5 <= 0
 idk_2!25!1: y_0!5_1!5 - x_1!5 <= 0
Bounds
 mu_0 free
 mu_1 free
 mu_2 free
Binary
 x_0!1 x_0!2 x_0!3 x_0!4 x_0!5 x_1!1 x_1!2 x_1!3 x_1!4 x_1!5 x_2!1 x_2!2 x_2!3 x_2!4 x_2!5
End
